WARNING: for repeatability, setting FPU to use double precision
============================[ Problem Statistics ]=============================
|                                                                             |
|  Number of variables:       7886458                                         |
|  Number of clauses:        47378648                                         |
|  Parse time:                  13.91 s                                       |
|                                                                             |
c ============================[ Search Statistics ]==============================
c | Conflicts |          ORIGINAL         |          LEARNT          | Progress |
c |           |    Vars  Clauses Literals |    Limit  Clauses Lit/Cl |          |
c ===============================================================================
c Switched to VSIDS.
c Switched to LRB.
c Switched to VSIDS.
c Switched to LRB.
c Switched to VSIDS.
c Switched to LRB.
c Switched to VSIDS.
c Switched to LRB.
c Switched to VSIDS.
c Switched to LRB.
c Switched to VSIDS.
c Switched to LRB.
c Switched to VSIDS.
c Switched to LRB.
c Switched to VSIDS.
c Switched to LRB.
c Switched to VSIDS.
c Switched to LRB.
c Switched to VSIDS.
c Switched to LRB.
c Switched to VSIDS.
c Switched to LRB.
c Switched to VSIDS.
c ===============================================================================
restarts                  : 2586
conflicts                 : 707885         (198 /sec)
decisions                 : 8933424421     (0.00 % random) (2497681 /sec)
propagations              : 11988115235    (3351737 /sec)
conflict literals         : 11471480       (13.93 % deleted)

conflicts w/ DIP found    : 417062         (58.92 % of conflicts)
conflicts w/ dangerous DIP: 0              (0.00 % of conflicts)
conflicts w/ DIP-learning : 16             (0.00 % of conflicts)
decisions on ext vars     : 45             (0.00 % of decisions)
total ext vars            : 6           
tried delete ext vars     : 0           
deleted ext vars          : 0           
max ext vars              : 6           

Memory used               : 6070.00 MB
CPU time                  : 3576.69 s
DIP computation time      : 5.83487 s (0.16 % of total time)
ER_sel time               : 0.720976 s
ER_add time               : 0.000161 s
ER_delC time              : 0 s
ER_delV time              : 0 s
ER_sub time               : 1.20874 s
ER_stat time              : 0 s

INDETERMINATE
